RAW/XY/fspd/X-n125-k30.vrp_seed-8.out
40082	22.015	25.229
