RAW/XY/fspd/X-n125-k30.vrp_seed-8.sol
Route #1: 107 41 29 72 67 64 84
Route #2: 121 101 77 7 54 48 38 60
Route #3: 75 5 33
Route #4: 117 55 27 30 85 62 108 26
Route #5: 21 91 112 110 122
Route #6: 39 37 53
Route #7: 10 18 83 61
Route #8: 109 36 79 1 46 63 118 68 94
Route #9: 95 58 104 71 45
Route #10: 120 57 90 102 3
Route #11: 97 74 28 9 19 11 114 87 16 52 31
Route #12: 119 98 69 76
Route #13: 25 47 22 40 65 80 4 20 111
Route #14: 78 59 70 6 124 50 49 82 56
Route #15: 51 105 89 88 115 34 2 13
Route #16: 35 100 99 73 43
Route #17: 24 23 66 116 17 15 92 81 42 44 123 14
Route #18: 32 113 8 106 93
Route #19: 103 12 86 96
Cost 40082.000000